119 48 011 1
1
272 113 1
235 114 1
208 115 1
219 116 1
203 117 1
267 118 1
256 119 1
241 108 1
213 109 1
244 110 1
226 111 1
279 112 1
247 113 1
352 114 1
196 115 1
226 116 1
258 117 1
217 118 1
172 119 1
198 108 1
238 109 1
238 110 1
220 111 1
210 112 1
324 113 1
231 114 1
188 115 1
239 116 1
219 117 1
301 118 1
265 119 1
302 108 1
235 109 1
194 110 1
224 111 1
176 112 1
223 113 1
164 114 1
240 115 1
184 116 1
258 117 1
212 118 1
256 119 1
226 108 1
335 109 1
271 110 1
237 111 1
222 112 1
1
1
1
1
1
1
1
1
1
1
1
1
1
1
1
1
1
1
1
1
1
1
1
1
1
1
1
1
1
1
1
1
1
1
1
1
1
1
1
1
1
1
1
1
1
1
1
1
1
1
1
1
1
1
1
1
1
1
1 9 240 21 197 33 301 45 225
1 10 212 22 237 34 234 46 334
1 11 243 23 237 35 193 47 270
1 12 225 24 219 36 223 48 236
1 13 278 25 209 37 175 49 221
1 2 271 14 246 26 323 38 222
1 3 234 15 351 27 230 39 163
1 4 207 16 195 28 187 40 239
1 5 218 17 225 29 238 41 183
1 6 202 18 257 30 218 42 257
1 7 266 19 216 31 300 43 211
1 8 255 20 171 32 264 44 255
